\* Problem: DEFAULT *\

Maximize
 obj: + x1 + x2 - 60 V

Subject To
 x1: + x1 + c - 0.502418860135627 w2 - 0.801230353207156 w1 <= 0.999
 x2: + x2 + c - 0.819873021974445 w2 - 0.408501406657169 w1 <= 0.999
 y1: - y1 - c + 0.603033833528997 w2 + 0.467060430980386 w1 <= -0.002
 y2: - y2 - c + 0.482478589375155 w2 + 0.133828995089186 w1 <= -0.002
 y3: - y3 - c + 0.442034916472025 w2 + 0.104238182667434 w1 <= -0.002
 V: - V - 0.3 x2 - 0.3 x1 + 0.7 y3 + 0.7 y2 + 0.7 y1 <= -0.0021
 X: + x2 + x1 >= 1
 Y: + y3 + y2 + y1 <= 2

Bounds
 w1 free
 w2 free
 c free
 0 <= x1 <= 1
 0 <= x2 <= 1
 0 <= y1 <= 1
 0 <= y2 <= 1
 0 <= y3 <= 1

Generals
 x1
 x2
 y1
 y2
 y3

End
